20
1 0 1
2 0 1
3 0 1
4 0 1
4 1 1
5 0 1
5 2 1
5 3 1
5 4 1
6 3 1
7 0 1
7 2 1
8 0 1
8 2 1
8 3 1
8 4 1
8 5 1
8 6 1
8 7 1
9 3 1
9 5 1
9 8 1
10 1 1
10 2 1
10 3 1
10 5 1
10 8 1
11 2 1
11 5 1
11 6 1
11 7 1
11 10 1
12 0 1
12 2 1
12 3 1
12 5 1
12 6 1
12 11 1
13 2 1
13 3 1
13 5 1
13 8 1
13 10 1
13 12 1
14 1 1
14 5 1
14 6 1
14 7 1
14 13 1
15 0 1
15 1 1
15 4 1
15 6 1
15 8 1
15 9 1
15 11 1
15 12 1
16 0 1
16 2 1
16 4 1
16 5 1
16 6 1
16 7 1
16 11 1
16 14 1
17 0 1
17 4 1
17 5 1
17 6 1
17 8 1
17 9 1
17 10 1
17 13 1
17 15 1
17 16 1
18 3 1
18 4 1
18 5 1
18 6 1
18 10 1
18 11 1
18 12 1
18 13 1
18 15 1
18 17 1
19 1 1
19 5 1
19 6 1
19 10 1
19 11 1
19 17 1
